c instance by G2
c solution = 00001000111011001
c Known solution cost is 938 
p cnf 17 30
w 35 15 38 42 62 28 44 81 74 81 17 46 71 56 68 92 88
16 17 -13 0
7 5 -11 0
9 -16 17 0
-14 -6 1 0
13 -11 1 0
-3 8 -14 0
-4 -13 7 0
-4 -13 16 0
-4 -5 16 0
-13 -1 -11 0
1 -5 -6 0
8 -14 -15 0
-16 4 6 0
-7 4 -8 0
3 -5 10 0
12 5 -9 0
-13 5 17 0
14 2 4 0
-11 -9 -7 0
-14 -12 15 0
4 10 9 0
-14 7 9 0
-8 10 4 0
4 -2 7 0
16 -11 5 0
12 -8 -10 0
-3 -16 2 0
11 15 -10 0
13 -2 -7 0
6 -7 -10 0
